n_res = 4;
rc = [ 20, 23, 18, 20 ];
n_tasks = 30;
d = [ 7, 4, 10, 2, 10, 4, 5, 4, 10, 3, 7, 9, 5, 3, 2, 2, 3, 5, 4, 7, 1, 1, 3, 5, 1, 1, 4, 1, 3, 6 ];
rr = [| 9, 3, 10, 1, 4, 10, 5, 7, 6, 5, 7, 4, 8, 0, 5, 3, 5, 4, 8, 0, 0, 6, 7, 9, 0, 0, 7, 10, 2, 2
      | 3, 5, 0, 3, 7, 7, 8, 8, 2, 0, 8, 7, 6, 7, 0, 10, 0, 3, 8, 3, 7, 8, 8, 10, 8, 0, 7, 0, 0, 5
      | 0, 6, 0, 0, 3, 1, 0, 2, 2, 4, 1, 3, 3, 0, 3, 8, 1, 6, 0, 0, 0, 10, 0, 0, 3, 6, 8, 8, 4, 9
      | 6, 1, 0, 2, 9, 0, 3, 0, 7, 2, 0, 6, 3, 7, 10, 6, 4, 9, 6, 0, 0, 4, 8, 3, 3, 4, 0, 5, 8, 1 |];
suc = [ { 2 }, 
        { 1 }, 
        { 4 }, 
        { 3 }, 
        { 6 }, 
        { 5 }, 
        { 8 }, 
        { 7 }, 
        { 10 }, 
        { 9 }, 
        { 12 }, 
        { 11 }, 
        { 14 }, 
        { 13 }, 
        { 16 }, 
        { 15 }, 
        { 18 }, 
        { 17 }, 
        { 20 }, 
        { 19 }, 
        { 22 }, 
        { 21 }, 
        { 24 }, 
        { 23 }, 
        { 26 }, 
        { 25 }, 
        { 28 }, 
        { 27 }, 
        { 30 }, 
        { 29 }]; 
